
Gurobi 6.5.2 (linux64) logging started Tue Jun  6 12:38:56 2017

Changed value of parameter LogFile to test_cases/mip_solutions/furman_sahinidis/transportation/15sp-tkm_gurobi.log
   Prev: gurobi.log  Default: 
Changed value of parameter Threads to 1
   Prev: 0  Min: 0  Max: 1024  Default: 0
Optimize a model with 7677 rows, 15822 columns and 54718 nonzeros
Coefficient statistics:
  Matrix range    [1e+00, 8e+03]
  Objective range [1e+00, 1e+00]
  Bounds range    [1e+00, 1e+00]
  RHS range       [1e+00, 1e+04]
Presolve removed 7574 rows and 15222 columns
Presolve time: 0.01s
Presolved: 103 rows, 600 columns, 1717 nonzeros
Variable types: 559 continuous, 41 integer (41 binary)

Root relaxation: objective 1.476897e+01, 350 iterations, 0.00 seconds

    Nodes    |    Current Node    |     Objective Bounds      |     Work
 Expl Unexpl |  Obj  Depth IntInf | Incumbent    BestBd   Gap | It/Node Time

     0     0   14.76897    0   14          -   14.76897      -     -    0s
H    0     0                      21.0000000   14.76897  29.7%     -    0s
     0     0   16.69026    0    8   21.00000   16.69026  20.5%     -    0s
     0     0   16.77129    0    5   21.00000   16.77129  20.1%     -    0s
     0     0   16.93575    0   15   21.00000   16.93575  19.4%     -    0s
     0     0   16.97188    0   16   21.00000   16.97188  19.2%     -    0s
     0     0   17.04402    0   15   21.00000   17.04402  18.8%     -    0s
H    0     0                      19.0000000   17.04402  10.3%     -    0s
     0     0   17.04715    0   14   19.00000   17.04715  10.3%     -    0s
     0     0   17.06769    0   15   19.00000   17.06769  10.2%     -    0s
     0     0   17.06769    0   15   19.00000   17.06769  10.2%     -    0s
     0     2   17.06769    0   15   19.00000   17.06769  10.2%     -    0s

Cutting planes:
  Gomory: 2
  Cover: 5
  Implied bound: 31
  MIR: 10
  Flow cover: 18
  Network: 4

Explored 134 nodes (3175 simplex iterations) in 0.10 seconds
Thread count was 1 (of 8 available processors)

Optimal solution found (tolerance 4.00e-02)
Best objective 1.900000000000e+01, best bound 1.900000000000e+01, gap 0.0%

Gurobi 6.5.2 (linux64) logging started Mon Jul 24 16:43:35 2017

Changed value of parameter LogFile to data/mip_solutions/furman_sahinidis/transportation/15sp-tkm_gurobi.log
   Prev: gurobi.log  Default: 
Changed value of parameter Threads to 1
   Prev: 0  Min: 0  Max: 1024  Default: 0
Optimize a model with 7677 rows, 15822 columns and 54718 nonzeros
Coefficient statistics:
  Matrix range    [1e+00, 8e+03]
  Objective range [1e+00, 1e+00]
  Bounds range    [1e+00, 1e+00]
  RHS range       [1e+00, 1e+04]
Presolve removed 7574 rows and 15222 columns
Presolve time: 0.01s
Presolved: 103 rows, 600 columns, 1717 nonzeros
Variable types: 559 continuous, 41 integer (41 binary)

Root relaxation: objective 1.476897e+01, 350 iterations, 0.00 seconds

    Nodes    |    Current Node    |     Objective Bounds      |     Work
 Expl Unexpl |  Obj  Depth IntInf | Incumbent    BestBd   Gap | It/Node Time

     0     0   14.76897    0   14          -   14.76897      -     -    0s
H    0     0                      21.0000000   14.76897  29.7%     -    0s
     0     0   16.69026    0    8   21.00000   16.69026  20.5%     -    0s
     0     0   16.77129    0    5   21.00000   16.77129  20.1%     -    0s
     0     0   16.93575    0   15   21.00000   16.93575  19.4%     -    0s
     0     0   16.97188    0   16   21.00000   16.97188  19.2%     -    0s
     0     0   17.04402    0   15   21.00000   17.04402  18.8%     -    0s
H    0     0                      19.0000000   17.04402  10.3%     -    0s
     0     0   17.04715    0   14   19.00000   17.04715  10.3%     -    0s
     0     0   17.06769    0   15   19.00000   17.06769  10.2%     -    0s
     0     0   17.06769    0   15   19.00000   17.06769  10.2%     -    0s
     0     2   17.06769    0   15   19.00000   17.06769  10.2%     -    0s

Cutting planes:
  Gomory: 2
  Cover: 5
  Implied bound: 31
  MIR: 10
  Flow cover: 18
  Network: 4

Explored 134 nodes (3175 simplex iterations) in 0.10 seconds
Thread count was 1 (of 8 available processors)

Optimal solution found (tolerance 4.00e-02)
Best objective 1.900000000000e+01, best bound 1.900000000000e+01, gap 0.0%

Gurobi 6.5.2 (linux64) logging started Mon Jul 24 16:45:13 2017

Changed value of parameter LogFile to data/mip_solutions/furman_sahinidis/transportation/15sp-tkm_gurobi.log
   Prev: gurobi.log  Default: 
Changed value of parameter Threads to 1
   Prev: 0  Min: 0  Max: 1024  Default: 0
Optimize a model with 7677 rows, 15822 columns and 54718 nonzeros
Coefficient statistics:
  Matrix range    [1e+00, 8e+03]
  Objective range [1e+00, 1e+00]
  Bounds range    [1e+00, 1e+00]
  RHS range       [1e+00, 1e+04]
Presolve removed 7574 rows and 15222 columns
Presolve time: 0.01s
Presolved: 103 rows, 600 columns, 1717 nonzeros
Variable types: 559 continuous, 41 integer (41 binary)

Root relaxation: objective 1.476897e+01, 350 iterations, 0.00 seconds

    Nodes    |    Current Node    |     Objective Bounds      |     Work
 Expl Unexpl |  Obj  Depth IntInf | Incumbent    BestBd   Gap | It/Node Time

     0     0   14.76897    0   14          -   14.76897      -     -    0s
H    0     0                      21.0000000   14.76897  29.7%     -    0s
     0     0   16.69026    0    8   21.00000   16.69026  20.5%     -    0s
     0     0   16.77129    0    5   21.00000   16.77129  20.1%     -    0s
     0     0   16.93575    0   15   21.00000   16.93575  19.4%     -    0s
     0     0   16.97188    0   16   21.00000   16.97188  19.2%     -    0s
     0     0   17.04402    0   15   21.00000   17.04402  18.8%     -    0s
H    0     0                      19.0000000   17.04402  10.3%     -    0s
     0     0   17.04715    0   14   19.00000   17.04715  10.3%     -    0s
     0     0   17.06769    0   15   19.00000   17.06769  10.2%     -    0s
     0     0   17.06769    0   15   19.00000   17.06769  10.2%     -    0s
     0     2   17.06769    0   15   19.00000   17.06769  10.2%     -    0s

Cutting planes:
  Gomory: 2
  Cover: 5
  Implied bound: 31
  MIR: 10
  Flow cover: 18
  Network: 4

Explored 134 nodes (3175 simplex iterations) in 0.11 seconds
Thread count was 1 (of 8 available processors)

Optimal solution found (tolerance 4.00e-02)
Best objective 1.900000000000e+01, best bound 1.900000000000e+01, gap 0.0%

Gurobi 6.5.2 (linux64) logging started Mon Jul 24 16:57:56 2017

Changed value of parameter LogFile to data/mip_solutions/furman_sahinidis/transportation/15sp-tkm_gurobi.log
   Prev: gurobi.log  Default: 
Changed value of parameter Threads to 1
   Prev: 0  Min: 0  Max: 1024  Default: 0
Optimize a model with 7677 rows, 15822 columns and 54718 nonzeros
Coefficient statistics:
  Matrix range    [1e+00, 8e+03]
  Objective range [1e+00, 1e+00]
  Bounds range    [1e+00, 1e+00]
  RHS range       [1e+00, 1e+04]
Presolve removed 7574 rows and 15222 columns
Presolve time: 0.01s
Presolved: 103 rows, 600 columns, 1717 nonzeros
Variable types: 559 continuous, 41 integer (41 binary)

Root relaxation: objective 1.476897e+01, 350 iterations, 0.00 seconds

    Nodes    |    Current Node    |     Objective Bounds      |     Work
 Expl Unexpl |  Obj  Depth IntInf | Incumbent    BestBd   Gap | It/Node Time

     0     0   14.76897    0   14          -   14.76897      -     -    0s
H    0     0                      21.0000000   14.76897  29.7%     -    0s
     0     0   16.69026    0    8   21.00000   16.69026  20.5%     -    0s
     0     0   16.77129    0    5   21.00000   16.77129  20.1%     -    0s
     0     0   16.93575    0   15   21.00000   16.93575  19.4%     -    0s
     0     0   16.97188    0   16   21.00000   16.97188  19.2%     -    0s
     0     0   17.04402    0   15   21.00000   17.04402  18.8%     -    0s
H    0     0                      19.0000000   17.04402  10.3%     -    0s
     0     0   17.04715    0   14   19.00000   17.04715  10.3%     -    0s
     0     0   17.06769    0   15   19.00000   17.06769  10.2%     -    0s
     0     0   17.06769    0   15   19.00000   17.06769  10.2%     -    0s
     0     2   17.06769    0   15   19.00000   17.06769  10.2%     -    0s

Cutting planes:
  Gomory: 2
  Cover: 5
  Implied bound: 31
  MIR: 10
  Flow cover: 18
  Network: 4

Explored 134 nodes (3175 simplex iterations) in 0.10 seconds
Thread count was 1 (of 8 available processors)

Optimal solution found (tolerance 4.00e-02)
Best objective 1.900000000000e+01, best bound 1.900000000000e+01, gap 0.0%

Gurobi 6.5.2 (linux64) logging started Wed Jul 26 11:54:45 2017

Changed value of parameter LogFile to data/mip_solutions/furman_sahinidis/transportation/15sp-tkm_gurobi.log
   Prev: gurobi.log  Default: 
Changed value of parameter Threads to 1
   Prev: 0  Min: 0  Max: 1024  Default: 0
Optimize a model with 7677 rows, 15822 columns and 54718 nonzeros
Coefficient statistics:
  Matrix range    [1e+00, 8e+03]
  Objective range [1e+00, 1e+00]
  Bounds range    [1e+00, 1e+00]
  RHS range       [1e+00, 1e+04]
Presolve removed 7574 rows and 15222 columns
Presolve time: 0.01s
Presolved: 103 rows, 600 columns, 1717 nonzeros
Variable types: 559 continuous, 41 integer (41 binary)

Root relaxation: objective 1.476897e+01, 350 iterations, 0.00 seconds

    Nodes    |    Current Node    |     Objective Bounds      |     Work
 Expl Unexpl |  Obj  Depth IntInf | Incumbent    BestBd   Gap | It/Node Time

     0     0   14.76897    0   14          -   14.76897      -     -    0s
H    0     0                      21.0000000   14.76897  29.7%     -    0s
     0     0   16.69026    0    8   21.00000   16.69026  20.5%     -    0s
     0     0   16.77129    0    5   21.00000   16.77129  20.1%     -    0s
     0     0   16.93575    0   15   21.00000   16.93575  19.4%     -    0s
     0     0   16.97188    0   16   21.00000   16.97188  19.2%     -    0s
     0     0   17.04402    0   15   21.00000   17.04402  18.8%     -    0s
H    0     0                      19.0000000   17.04402  10.3%     -    0s
     0     0   17.04715    0   14   19.00000   17.04715  10.3%     -    0s
     0     0   17.06769    0   15   19.00000   17.06769  10.2%     -    0s
     0     0   17.06769    0   15   19.00000   17.06769  10.2%     -    0s
     0     2   17.06769    0   15   19.00000   17.06769  10.2%     -    0s

Cutting planes:
  Gomory: 2
  Cover: 5
  Implied bound: 31
  MIR: 10
  Flow cover: 18
  Network: 4

Explored 134 nodes (3175 simplex iterations) in 0.11 seconds
Thread count was 1 (of 8 available processors)

Optimal solution found (tolerance 4.00e-02)
Best objective 1.900000000000e+01, best bound 1.900000000000e+01, gap 0.0%
